
List of user-set options:

                                    Name   Value                used
                linear_scaling_on_demand = no                    yes
                           linear_solver = ma86                  yes
                   linear_system_scaling = mc19                  yes
                                max_iter = 7000                  yes
                                 mu_init = 1e-06                 yes
                             output_file = ./tmp/ipopt_output_tmp.output  yes
                      print_user_options = yes                   yes
                   warm_start_bound_push = 1e-20                 yes
                   warm_start_init_point = yes                   yes
              warm_start_mult_bound_push = 1e-20                 yes

******************************************************************************
This program contains Ipopt, a library for large-scale nonlinear optimization.
 Ipopt is released as open source code under the Eclipse Public License (EPL).
         For more information visit http://projects.coin-or.org/Ipopt
******************************************************************************

This is Ipopt version 3.12.8, running with linear solver ma86.

Number of nonzeros in equality constraint Jacobian...:   102945
Number of nonzeros in inequality constraint Jacobian.:      145
Number of nonzeros in Lagrangian Hessian.............:   102746

Total number of variables............................:    29080
                     variables with only lower bounds:    11234
                variables with lower and upper bounds:    14309
                     variables with only upper bounds:        0
Total number of equality constraints.................:    28997
Total number of inequality constraints...............:       21
        inequality constraints with only lower bounds:        0
   inequality constraints with lower and upper bounds:        0
        inequality constraints with only upper bounds:       21

iter    objective    inf_pr   inf_du lg(mu)  ||d||  lg(rg) alpha_du alpha_pr  ls
   0 -9.8630000e+03 8.29e-02 6.00e-02  -6.0 0.00e+00    -  0.00e+00 0.00e+00   0
   1 -9.8630000e+03 8.29e-02 1.74e-01  -6.0 1.23e+04    -  9.92e-08 2.12e-07h  2
   2 -9.8630000e+03 2.10e-01 1.16e+02  -6.0 6.93e+01    -  1.19e-01 7.76e-01f  1
   3 -9.8630000e+03 2.09e-01 1.59e+03  -6.0 4.65e+01    -  3.65e-03 7.56e-04h  1
   4 -9.8630000e+03 2.09e-01 5.52e+03  -6.0 1.17e+01    -  4.28e-06 3.16e-03f  1
   5 -9.8630000e+03 2.08e-01 3.56e+03  -6.0 6.21e+01    -  6.76e-02 1.66e-03h  1
